(set-option :produce-models true)
(set-logic QF_LRA)
(set-info :notes | Strip-packing problem.|)
(declare-fun x0 () Real)
(declare-fun y0 () Real)
(declare-fun x1 () Real)
(declare-fun y1 () Real)
(declare-fun x2 () Real)
(declare-fun y2 () Real)
(declare-fun x3 () Real)
(declare-fun y3 () Real)
(declare-fun x4 () Real)
(declare-fun y4 () Real)
(declare-fun x5 () Real)
(declare-fun y5 () Real)
(declare-fun x6 () Real)
(declare-fun y6 () Real)
(declare-fun x7 () Real)
(declare-fun y7 () Real)
(declare-fun x8 () Real)
(declare-fun y8 () Real)
(declare-fun x9 () Real)
(declare-fun y9 () Real)
(declare-fun x10 () Real)
(declare-fun y10 () Real)
(declare-fun x11 () Real)
(declare-fun y11 () Real)
(declare-fun z () Real)
(declare-fun c () Real)
(assert (and (= c z) (and (>= x0 0) 
(and (>= y0 0) 
(and (>= x1 0) 
(and (>= y1 0) 
(and (>= x2 0) 
(and (>= y2 0) 
(and (>= x3 0) 
(and (>= y3 0) 
(and (>= x4 0) 
(and (>= y4 0) 
(and (>= x5 0) 
(and (>= y5 0) 
(and (>= x6 0) 
(and (>= y6 0) 
(and (>= x7 0) 
(and (>= y7 0) 
(and (>= x8 0) 
(and (>= y8 0) 
(and (>= x9 0) 
(and (>= y9 0) 
(and (>= x10 0) 
(and (>= y10 0) 
(and (>= x11 0) 
(and (>= y11 0) 
(and (>= z 0) 
(and (>= c 0) 
(and (<= (+ x0 0.8449505792) z) 
(and (<= 0.8501649426 y0) 
(and (<= y0 1.73205080757) 
(and (<= x0 (- 4.5679080692 0.8449505792)) 
(and (>= x0 0) 
(and (<= (+ x1 0.2768303281) z) 
(and (<= 0.8324892204 y1) 
(and (<= y1 1.73205080757) 
(and (<= x1 (- 4.5679080692 0.2768303281)) 
(and (>= x1 0) 
(and (<= (+ x2 0.61897931) z) 
(and (<= 0.7692808137 y2) 
(and (<= y2 1.73205080757) 
(and (<= x2 (- 4.5679080692 0.61897931)) 
(and (>= x2 0) 
(and (<= (+ x3 0.4469405243) z) 
(and (<= 0.616455936 y3) 
(and (<= y3 1.73205080757) 
(and (<= x3 (- 4.5679080692 0.4469405243)) 
(and (>= x3 0) 
(and (<= (+ x4 0.1607019825) z) 
(and (<= 0.5606054891 y4) 
(and (<= y4 1.73205080757) 
(and (<= x4 (- 4.5679080692 0.1607019825)) 
(and (>= x4 0) 
(and (<= (+ x5 0.2683757934) z) 
(and (<= 0.423572041 y5) 
(and (<= y5 1.73205080757) 
(and (<= x5 (- 4.5679080692 0.2683757934)) 
(and (>= x5 0) 
(and (<= (+ x6 0.3453447991) z) 
(and (<= 0.379226561 y6) 
(and (<= y6 1.73205080757) 
(and (<= x6 (- 4.5679080692 0.3453447991)) 
(and (>= x6 0) 
(and (<= (+ x7 0.2187904324) z) 
(and (<= 0.3384190276 y7) 
(and (<= y7 1.73205080757) 
(and (<= x7 (- 4.5679080692 0.2187904324)) 
(and (>= x7 0) 
(and (<= (+ x8 0.4220609747) z) 
(and (<= 0.3098673427 y8) 
(and (<= y8 1.73205080757) 
(and (<= x8 (- 4.5679080692 0.4220609747)) 
(and (>= x8 0) 
(and (<= (+ x9 0.9405008546) z) 
(and (<= 0.2156856985 y9) 
(and (<= y9 1.73205080757) 
(and (<= x9 (- 4.5679080692 0.9405008546)) 
(and (>= x9 0) 
(and (<= (+ x10 0.9669937757) z) 
(and (<= 0.1331083009 y10) 
(and (<= y10 1.73205080757) 
(and (<= x10 (- 4.5679080692 0.9669937757)) 
(and (>= x10 0) 
(and (<= (+ x11 0.8339632757) z) 
(and (<= 0.0861665652 y11) 
(and (<= y11 1.73205080757) 
(and (<= x11 (- 4.5679080692 0.8339632757)) 
(and (>= x11 0) 
(and (<= c 4.5679080692) 
(and (or (<= (+ x0 0.8449505792) x1) (or (<= (+ x1 0.2768303281) x0) (or (>= (- y0 0.8501649426) y1) (or (>= (- y1 0.8324892204) y0))))) 
(and (or (<= (+ x0 0.8449505792) x2) (or (<= (+ x2 0.61897931) x0) (or (>= (- y0 0.8501649426) y2) (or (>= (- y2 0.7692808137) y0))))) 
(and (or (<= (+ x0 0.8449505792) x3) (or (<= (+ x3 0.4469405243) x0) (or (>= (- y0 0.8501649426) y3) (or (>= (- y3 0.616455936) y0))))) 
(and (or (<= (+ x0 0.8449505792) x4) (or (<= (+ x4 0.1607019825) x0) (or (>= (- y0 0.8501649426) y4) (or (>= (- y4 0.5606054891) y0))))) 
(and (or (<= (+ x0 0.8449505792) x5) (or (<= (+ x5 0.2683757934) x0) (or (>= (- y0 0.8501649426) y5) (or (>= (- y5 0.423572041) y0))))) 
(and (or (<= (+ x0 0.8449505792) x6) (or (<= (+ x6 0.3453447991) x0) (or (>= (- y0 0.8501649426) y6) (or (>= (- y6 0.379226561) y0))))) 
(and (or (<= (+ x0 0.8449505792) x7) (or (<= (+ x7 0.2187904324) x0) (or (>= (- y0 0.8501649426) y7) (or (>= (- y7 0.3384190276) y0))))) 
(and (or (<= (+ x0 0.8449505792) x8) (or (<= (+ x8 0.4220609747) x0) (or (>= (- y0 0.8501649426) y8) (or (>= (- y8 0.3098673427) y0))))) 
(and (or (<= (+ x0 0.8449505792) x9) (or (<= (+ x9 0.9405008546) x0) (or (>= (- y0 0.8501649426) y9) (or (>= (- y9 0.2156856985) y0))))) 
(and (or (<= (+ x0 0.8449505792) x10) (or (<= (+ x10 0.9669937757) x0) (or (>= (- y0 0.8501649426) y10) (or (>= (- y10 0.1331083009) y0))))) 
(and (or (<= (+ x0 0.8449505792) x11) (or (<= (+ x11 0.8339632757) x0) (or (>= (- y0 0.8501649426) y11) (or (>= (- y11 0.0861665652) y0))))) 
(and (or (<= (+ x1 0.2768303281) x2) (or (<= (+ x2 0.61897931) x1) (or (>= (- y1 0.8324892204) y2) (or (>= (- y2 0.7692808137) y1))))) 
(and (or (<= (+ x1 0.2768303281) x3) (or (<= (+ x3 0.4469405243) x1) (or (>= (- y1 0.8324892204) y3) (or (>= (- y3 0.616455936) y1))))) 
(and (or (<= (+ x1 0.2768303281) x4) (or (<= (+ x4 0.1607019825) x1) (or (>= (- y1 0.8324892204) y4) (or (>= (- y4 0.5606054891) y1))))) 
(and (or (<= (+ x1 0.2768303281) x5) (or (<= (+ x5 0.2683757934) x1) (or (>= (- y1 0.8324892204) y5) (or (>= (- y5 0.423572041) y1))))) 
(and (or (<= (+ x1 0.2768303281) x6) (or (<= (+ x6 0.3453447991) x1) (or (>= (- y1 0.8324892204) y6) (or (>= (- y6 0.379226561) y1))))) 
(and (or (<= (+ x1 0.2768303281) x7) (or (<= (+ x7 0.2187904324) x1) (or (>= (- y1 0.8324892204) y7) (or (>= (- y7 0.3384190276) y1))))) 
(and (or (<= (+ x1 0.2768303281) x8) (or (<= (+ x8 0.4220609747) x1) (or (>= (- y1 0.8324892204) y8) (or (>= (- y8 0.3098673427) y1))))) 
(and (or (<= (+ x1 0.2768303281) x9) (or (<= (+ x9 0.9405008546) x1) (or (>= (- y1 0.8324892204) y9) (or (>= (- y9 0.2156856985) y1))))) 
(and (or (<= (+ x1 0.2768303281) x10) (or (<= (+ x10 0.9669937757) x1) (or (>= (- y1 0.8324892204) y10) (or (>= (- y10 0.1331083009) y1))))) 
(and (or (<= (+ x1 0.2768303281) x11) (or (<= (+ x11 0.8339632757) x1) (or (>= (- y1 0.8324892204) y11) (or (>= (- y11 0.0861665652) y1))))) 
(and (or (<= (+ x2 0.61897931) x3) (or (<= (+ x3 0.4469405243) x2) (or (>= (- y2 0.7692808137) y3) (or (>= (- y3 0.616455936) y2))))) 
(and (or (<= (+ x2 0.61897931) x4) (or (<= (+ x4 0.1607019825) x2) (or (>= (- y2 0.7692808137) y4) (or (>= (- y4 0.5606054891) y2))))) 
(and (or (<= (+ x2 0.61897931) x5) (or (<= (+ x5 0.2683757934) x2) (or (>= (- y2 0.7692808137) y5) (or (>= (- y5 0.423572041) y2))))) 
(and (or (<= (+ x2 0.61897931) x6) (or (<= (+ x6 0.3453447991) x2) (or (>= (- y2 0.7692808137) y6) (or (>= (- y6 0.379226561) y2))))) 
(and (or (<= (+ x2 0.61897931) x7) (or (<= (+ x7 0.2187904324) x2) (or (>= (- y2 0.7692808137) y7) (or (>= (- y7 0.3384190276) y2))))) 
(and (or (<= (+ x2 0.61897931) x8) (or (<= (+ x8 0.4220609747) x2) (or (>= (- y2 0.7692808137) y8) (or (>= (- y8 0.3098673427) y2))))) 
(and (or (<= (+ x2 0.61897931) x9) (or (<= (+ x9 0.9405008546) x2) (or (>= (- y2 0.7692808137) y9) (or (>= (- y9 0.2156856985) y2))))) 
(and (or (<= (+ x2 0.61897931) x10) (or (<= (+ x10 0.9669937757) x2) (or (>= (- y2 0.7692808137) y10) (or (>= (- y10 0.1331083009) y2))))) 
(and (or (<= (+ x2 0.61897931) x11) (or (<= (+ x11 0.8339632757) x2) (or (>= (- y2 0.7692808137) y11) (or (>= (- y11 0.0861665652) y2))))) 
(and (or (<= (+ x3 0.4469405243) x4) (or (<= (+ x4 0.1607019825) x3) (or (>= (- y3 0.616455936) y4) (or (>= (- y4 0.5606054891) y3))))) 
(and (or (<= (+ x3 0.4469405243) x5) (or (<= (+ x5 0.2683757934) x3) (or (>= (- y3 0.616455936) y5) (or (>= (- y5 0.423572041) y3))))) 
(and (or (<= (+ x3 0.4469405243) x6) (or (<= (+ x6 0.3453447991) x3) (or (>= (- y3 0.616455936) y6) (or (>= (- y6 0.379226561) y3))))) 
(and (or (<= (+ x3 0.4469405243) x7) (or (<= (+ x7 0.2187904324) x3) (or (>= (- y3 0.616455936) y7) (or (>= (- y7 0.3384190276) y3))))) 
(and (or (<= (+ x3 0.4469405243) x8) (or (<= (+ x8 0.4220609747) x3) (or (>= (- y3 0.616455936) y8) (or (>= (- y8 0.3098673427) y3))))) 
(and (or (<= (+ x3 0.4469405243) x9) (or (<= (+ x9 0.9405008546) x3) (or (>= (- y3 0.616455936) y9) (or (>= (- y9 0.2156856985) y3))))) 
(and (or (<= (+ x3 0.4469405243) x10) (or (<= (+ x10 0.9669937757) x3) (or (>= (- y3 0.616455936) y10) (or (>= (- y10 0.1331083009) y3))))) 
(and (or (<= (+ x3 0.4469405243) x11) (or (<= (+ x11 0.8339632757) x3) (or (>= (- y3 0.616455936) y11) (or (>= (- y11 0.0861665652) y3))))) 
(and (or (<= (+ x4 0.1607019825) x5) (or (<= (+ x5 0.2683757934) x4) (or (>= (- y4 0.5606054891) y5) (or (>= (- y5 0.423572041) y4))))) 
(and (or (<= (+ x4 0.1607019825) x6) (or (<= (+ x6 0.3453447991) x4) (or (>= (- y4 0.5606054891) y6) (or (>= (- y6 0.379226561) y4))))) 
(and (or (<= (+ x4 0.1607019825) x7) (or (<= (+ x7 0.2187904324) x4) (or (>= (- y4 0.5606054891) y7) (or (>= (- y7 0.3384190276) y4))))) 
(and (or (<= (+ x4 0.1607019825) x8) (or (<= (+ x8 0.4220609747) x4) (or (>= (- y4 0.5606054891) y8) (or (>= (- y8 0.3098673427) y4))))) 
(and (or (<= (+ x4 0.1607019825) x9) (or (<= (+ x9 0.9405008546) x4) (or (>= (- y4 0.5606054891) y9) (or (>= (- y9 0.2156856985) y4))))) 
(and (or (<= (+ x4 0.1607019825) x10) (or (<= (+ x10 0.9669937757) x4) (or (>= (- y4 0.5606054891) y10) (or (>= (- y10 0.1331083009) y4))))) 
(and (or (<= (+ x4 0.1607019825) x11) (or (<= (+ x11 0.8339632757) x4) (or (>= (- y4 0.5606054891) y11) (or (>= (- y11 0.0861665652) y4))))) 
(and (or (<= (+ x5 0.2683757934) x6) (or (<= (+ x6 0.3453447991) x5) (or (>= (- y5 0.423572041) y6) (or (>= (- y6 0.379226561) y5))))) 
(and (or (<= (+ x5 0.2683757934) x7) (or (<= (+ x7 0.2187904324) x5) (or (>= (- y5 0.423572041) y7) (or (>= (- y7 0.3384190276) y5))))) 
(and (or (<= (+ x5 0.2683757934) x8) (or (<= (+ x8 0.4220609747) x5) (or (>= (- y5 0.423572041) y8) (or (>= (- y8 0.3098673427) y5))))) 
(and (or (<= (+ x5 0.2683757934) x9) (or (<= (+ x9 0.9405008546) x5) (or (>= (- y5 0.423572041) y9) (or (>= (- y9 0.2156856985) y5))))) 
(and (or (<= (+ x5 0.2683757934) x10) (or (<= (+ x10 0.9669937757) x5) (or (>= (- y5 0.423572041) y10) (or (>= (- y10 0.1331083009) y5))))) 
(and (or (<= (+ x5 0.2683757934) x11) (or (<= (+ x11 0.8339632757) x5) (or (>= (- y5 0.423572041) y11) (or (>= (- y11 0.0861665652) y5))))) 
(and (or (<= (+ x6 0.3453447991) x7) (or (<= (+ x7 0.2187904324) x6) (or (>= (- y6 0.379226561) y7) (or (>= (- y7 0.3384190276) y6))))) 
(and (or (<= (+ x6 0.3453447991) x8) (or (<= (+ x8 0.4220609747) x6) (or (>= (- y6 0.379226561) y8) (or (>= (- y8 0.3098673427) y6))))) 
(and (or (<= (+ x6 0.3453447991) x9) (or (<= (+ x9 0.9405008546) x6) (or (>= (- y6 0.379226561) y9) (or (>= (- y9 0.2156856985) y6))))) 
(and (or (<= (+ x6 0.3453447991) x10) (or (<= (+ x10 0.9669937757) x6) (or (>= (- y6 0.379226561) y10) (or (>= (- y10 0.1331083009) y6))))) 
(and (or (<= (+ x6 0.3453447991) x11) (or (<= (+ x11 0.8339632757) x6) (or (>= (- y6 0.379226561) y11) (or (>= (- y11 0.0861665652) y6))))) 
(and (or (<= (+ x7 0.2187904324) x8) (or (<= (+ x8 0.4220609747) x7) (or (>= (- y7 0.3384190276) y8) (or (>= (- y8 0.3098673427) y7))))) 
(and (or (<= (+ x7 0.2187904324) x9) (or (<= (+ x9 0.9405008546) x7) (or (>= (- y7 0.3384190276) y9) (or (>= (- y9 0.2156856985) y7))))) 
(and (or (<= (+ x7 0.2187904324) x10) (or (<= (+ x10 0.9669937757) x7) (or (>= (- y7 0.3384190276) y10) (or (>= (- y10 0.1331083009) y7))))) 
(and (or (<= (+ x7 0.2187904324) x11) (or (<= (+ x11 0.8339632757) x7) (or (>= (- y7 0.3384190276) y11) (or (>= (- y11 0.0861665652) y7))))) 
(and (or (<= (+ x8 0.4220609747) x9) (or (<= (+ x9 0.9405008546) x8) (or (>= (- y8 0.3098673427) y9) (or (>= (- y9 0.2156856985) y8))))) 
(and (or (<= (+ x8 0.4220609747) x10) (or (<= (+ x10 0.9669937757) x8) (or (>= (- y8 0.3098673427) y10) (or (>= (- y10 0.1331083009) y8))))) 
(and (or (<= (+ x8 0.4220609747) x11) (or (<= (+ x11 0.8339632757) x8) (or (>= (- y8 0.3098673427) y11) (or (>= (- y11 0.0861665652) y8))))) 
(and (or (<= (+ x9 0.9405008546) x10) (or (<= (+ x10 0.9669937757) x9) (or (>= (- y9 0.2156856985) y10) (or (>= (- y10 0.1331083009) y9))))) 
(and (or (<= (+ x9 0.9405008546) x11) (or (<= (+ x11 0.8339632757) x9) (or (>= (- y9 0.2156856985) y11) (or (>= (- y11 0.0861665652) y9))))) 
(and (or (<= (+ x10 0.9669937757) x11) (or (<= (+ x11 0.8339632757) x10) (or (>= (- y10 0.1331083009) y11) (or (>= (- y11 0.0861665652) y10))))) )))))))))))))))))))))))))))))))))))))))))))))))))))))))))))))))))))))))))))))))))))))))))))))))))))))))))))))))))))))))))))))))))))))))))))))))))))))))))))
(minimize c)
(check-sat)
(get-objectives)
(exit)
